proyfinal/src/viki/013/experimentInOfficeAgust.take6.output/9a463bd4-c5a8-447c-a8c5-46d03524c403.als.dat
{'cnf.clauses': '118081',
 'cnf.totvars': '69608',
 'conflict literals': '55',
 'conflicts': '24',
 'decisions': '3093',
 'memused.mb': '14.72',
 'outcome': 'UNSAT',
 'propagations': '41553',
 'restarts': '1',
 'solver.msecs': 39,
 'task.msecs': 130}
