proyfinal/src/viki/013/experimentInOfficeAgust.take6.output/9a463bd4-c5a8-447c-a8c5-46d03524c403.als.out
Reading from standard input... Use '--help' for help.
============================[ Problem Statistics ]=============================
|                                                                             |
|  Number of variables:         69608                                         |
|  Number of clauses:          118081                                         |
|  Parse time:                   0.03 s                                       |
|                                                                             |
============================[ Search Statistics ]==============================
| Conflicts |          ORIGINAL         |          LEARNT          | Progress |
|           |    Vars  Clauses Literals |    Limit  Clauses Lit/Cl |          |
===============================================================================
===============================================================================
restarts              : 1
conflicts             : 24             (605 /sec)
decisions             : 3093           (0.00 % random) (77968 /sec)
propagations          : 41553          (1047467 /sec)
conflict literals     : 55             (21.43 % deleted)
Memory used           : 14.72 MB
CPU time              : 0.03967 s

UNSATISFIABLE
